GLPSOL--GLPK LP/MIP Solver 5.0
Parameter(s) specified in the command line:
 --lp ../modeles/2_219.lp --log 2_219.log
Reading problem data from '../modeles/2_219.lp'...
447 rows, 880 columns, 3076 non-zeros
438 integer variables, all of which are binary
1335 lines were read
GLPK Integer Optimizer 5.0
447 rows, 880 columns, 3076 non-zeros
438 integer variables, all of which are binary
Preprocessing...
436 constraint coefficient(s) were reduced
447 rows, 878 columns, 3074 non-zeros
438 integer variables, all of which are binary
Scaling...
 A: min|aij| =  8.340e-05  max|aij| =  4.000e+00  ratio =  4.796e+04
GM: min|aij| =  6.757e-02  max|aij| =  1.480e+01  ratio =  2.190e+02
EQ: min|aij| =  4.566e-03  max|aij| =  1.000e+00  ratio =  2.190e+02
2N: min|aij| =  3.906e-03  max|aij| =  1.762e+00  ratio =  4.510e+02
Constructing initial basis...
Size of triangular part is 447
Solving LP relaxation...
GLPK Simplex Optimizer 5.0
447 rows, 878 columns, 3074 non-zeros
      0: obj =   4.000000000e+00 inf =   9.500e+00 (5)
     29: obj =   4.999270225e-01 inf =   0.000e+00 (0)
*   129: obj =  -1.414134762e+00 inf =   4.362e-16 (0)
OPTIMAL LP SOLUTION FOUND
Integer optimization begins...
Long-step dual simplex will be used
+   129: mip =     not found yet >=              -inf        (1; 0)
+   165: >>>>>  -1.414134762e+00 >=  -1.414134762e+00   0.0% (37; 0)
+   165: mip =  -1.414134762e+00 >=     tree is empty   0.0% (0; 73)
INTEGER OPTIMAL SOLUTION FOUND
Time used:   0.0 secs
Memory used: 1.3 Mb (1390676 bytes)
